results_rootrelaxation/bin018_060_020.srr.sol
solution status: optimal solution found
objective value:                                    0
_var2840_                          0.0237513425917875 	(obj:0)
_var2864_                           0.144113382986579 	(obj:0)
_var2867_                           0.326903383936659 	(obj:0)
_var2892_                          0.0936693557590091 	(obj:0)
_var2896_                           0.124830167261191 	(obj:0)
_var2907_                          0.0950463956278993 	(obj:0)
_var2909_                          0.0396629398045273 	(obj:0)
_var2913_                          0.0243415851637072 	(obj:0)
_var2914_                          0.0076268444638826 	(obj:0)
_var2921_                           0.044086317878746 	(obj:0)
_var2924_                           0.215169573380414 	(obj:0)
_var2935_                          0.0776198461241636 	(obj:0)
_var2938_                          0.0792650377556527 	(obj:0)
_var2941_                          0.0915294264146117 	(obj:0)
_var2947_                          0.0166722830686117 	(obj:0)
_var2962_                           0.112211789585425 	(obj:0)
_var2963_                           0.134113539411894 	(obj:0)
_var2965_                          0.0899360526277949 	(obj:0)
_var2969_                          0.0799094476025298 	(obj:0)
_var2971_                          0.0810112845250403 	(obj:0)
_var2973_                           0.360199905314754 	(obj:0)
_var2976_                           0.313507377453238 	(obj:0)
_var2984_                          0.0746847697050951 	(obj:0)
_var2990_                           0.121265386428272 	(obj:0)
_var2991_                          0.0208503105783107 	(obj:0)
_var2997_                          0.0204591725432255 	(obj:0)
_var3001_                          0.0891560153549492 	(obj:0)
_var3002_                           0.250362415251178 	(obj:0)
_var3003_                          0.0242870728917668 	(obj:0)
_var3008_                           0.112687552752009 	(obj:0)
_var3011_                           0.114989553435268 	(obj:0)
_var3012_                          0.0295481922600848 	(obj:0)
_var3014_                          0.0494672524958904 	(obj:0)
_var3016_                          0.0212150296204055 	(obj:0)
_var3018_                         0.00944061617927541 	(obj:0)
_var3019_                           0.246594083454483 	(obj:0)
_var3022_                           0.107984138941442 	(obj:0)
_var3023_                          0.0804530053731521 	(obj:0)
_var3025_                           0.237095923312873 	(obj:0)
_var3030_                           0.080769427891322 	(obj:0)
_var3031_                          0.0912437225849135 	(obj:0)
_var3032_                           0.441447245098592 	(obj:0)
_var3037_                           0.172006440620473 	(obj:0)
_var3042_                           0.135697019233256 	(obj:0)
_var3047_                         0.00885266419951945 	(obj:0)
_var3063_                          0.0879623384543713 	(obj:0)
_var3064_                           0.338902301283295 	(obj:0)
_var3065_                          0.0630526583315494 	(obj:0)
_var3072_                           0.595456579402055 	(obj:0)
_var3074_                          0.0775930199663469 	(obj:0)
_var3076_                           0.077678246435728 	(obj:0)
_var3078_                           0.153713221206247 	(obj:0)
_var3080_                          0.0174995797948628 	(obj:0)
_var3085_                           0.317414881431431 	(obj:0)
_var3086_                          0.0953526163732798 	(obj:0)
_var3089_                           0.129349033228529 	(obj:0)
_var3091_                           0.018468450290483 	(obj:0)
_var3092_                           0.312443065948234 	(obj:0)
_var3096_                           0.354319988706207 	(obj:0)
_var3099_                           0.190914092733382 	(obj:0)
_var3103_                           0.185298865402548 	(obj:0)
_var3104_                         0.00989532716578647 	(obj:0)
_var3107_                            0.19996927783959 	(obj:0)
_var3110_                          0.0907282239938495 	(obj:0)
_var3112_                            0.33975720477389 	(obj:0)
_var3119_                          0.0131435324619808 	(obj:0)
_var3120_                           0.109992446826178 	(obj:0)
_var3121_                          0.0791800379636478 	(obj:0)
_var3122_                         0.00359394230133904 	(obj:0)
_var3128_                           0.161729413923785 	(obj:0)
_var3130_                          0.0808328261185547 	(obj:0)
_var3135_                           0.273399675232765 	(obj:0)
_var3136_                          0.0973414934674118 	(obj:0)
_var3139_                         0.00754938797169924 	(obj:0)
_var3144_                            0.14714637357572 	(obj:0)
_var3145_                          0.0306069840315721 	(obj:0)
_var3147_                           0.235531447564889 	(obj:0)
_var3149_                           0.196542641847128 	(obj:0)
_var3150_                           0.183712416061483 	(obj:0)
_var3151_                           0.030949956851904 	(obj:0)
_var3153_                           0.160146873549009 	(obj:0)
_var3154_                          0.0423461824921312 	(obj:0)
_var3155_                          0.0213444506295654 	(obj:0)
_var3156_                           0.178038296885722 	(obj:0)
_var3158_                           0.195206994797383 	(obj:0)
_var3159_                           0.176409137113801 	(obj:0)
_var3161_                           0.132894814557324 	(obj:0)
_var3165_                           0.306520622542196 	(obj:0)
_var3168_                            0.29949622480004 	(obj:0)
_var3169_                            0.28675875982613 	(obj:0)
_var3170_                            0.21003798496655 	(obj:0)
_var3173_                           0.080558062513829 	(obj:0)
_var3175_                           0.222737041077493 	(obj:0)
_var3178_                         0.00500176206254746 	(obj:0)
_var3180_                          0.0639275450797198 	(obj:0)
_var3181_                          0.0641654697300473 	(obj:0)
_var3182_                          0.0711706536434937 	(obj:0)
_var3184_                          0.0919198209083722 	(obj:0)
_var3186_                          0.0502435530781868 	(obj:0)
_var3188_                           0.226448447320533 	(obj:0)
_var3189_                           0.141825903029189 	(obj:0)
_var3190_                          0.0301672211612281 	(obj:0)
_var3192_                           0.161455525935897 	(obj:0)
_var3193_                           0.177587774596472 	(obj:0)
_var3194_                          0.0444547441911016 	(obj:0)
_var3196_                           0.123630442410716 	(obj:0)
_var3199_                           0.275630678400034 	(obj:0)
_var3200_                          0.0314268905141234 	(obj:0)
_var3201_                           0.109066977335654 	(obj:0)
_var3203_                           0.217075635221976 	(obj:0)
_var3204_                          0.0543531372625586 	(obj:0)
_var3205_                          0.0516926927973909 	(obj:0)
_var3210_                          0.0104907094722214 	(obj:0)
_var3211_                          0.0112949953779806 	(obj:0)
_var3212_                          0.0207515957710532 	(obj:0)
_var3213_                           0.152053566592528 	(obj:0)
_var3214_                         0.00860381577814868 	(obj:0)
_var3215_                          0.0168284188814978 	(obj:0)
_var3216_                          0.0616761392579814 	(obj:0)
_var3217_                          0.0221223238068259 	(obj:0)
_var3218_                          0.0387185765848533 	(obj:0)
_var3219_                          0.0112628886434882 	(obj:0)
_var3220_                          0.0537444499288596 	(obj:0)
_var3221_                         0.00344871387448004 	(obj:0)
_var3222_                          0.0167178184799537 	(obj:0)
_var3223_                           0.145141223103659 	(obj:0)
_var3224_                          0.0193668979905876 	(obj:0)
_var3225_                           0.269906540709023 	(obj:0)
_var3227_                           0.284662762313407 	(obj:0)
_var3230_                          0.0674457677573166 	(obj:0)
_var3233_                           0.149991795646977 	(obj:0)
_var3234_                           0.129992039561786 	(obj:0)
_var3236_                          0.0401393331759077 	(obj:0)
_var3239_                          0.0501099891424244 	(obj:0)
_var3240_                          0.0124903351156847 	(obj:0)
_var3244_                          0.0509837852397188 	(obj:0)
_var3245_                           0.150341902739658 	(obj:0)
_var3247_                          0.0627884298611572 	(obj:0)
_var3248_                          0.0967394931169663 	(obj:0)
_var3251_                          0.0618824431173778 	(obj:0)
_var3252_                          0.0273317710087864 	(obj:0)
_var3256_                          0.0487595399262396 	(obj:0)
_var3257_                          0.0898490511068952 	(obj:0)
_var3260_                          0.0188397257973363 	(obj:0)
_var3263_                           0.019468177727329 	(obj:0)
_var3268_                           0.017297478193197 	(obj:0)
_var3270_                          0.0108603159365625 	(obj:0)
_var3274_                         0.00331717317991078 	(obj:0)
_var3276_                         0.00528784666039334 	(obj:0)
_var3277_                          0.0127960110858184 	(obj:0)
